p cnf 16 128
-1 -6 -12 0
-4 -6 -16 0
2 11 -15 0
4 5 8 0
-1 9 -15 0
-2 5 -8 0
-5 7 -15 0
1 13 -14 0
-11 -12 -14 0
-4 -5 -6 0
5 -7 14 0
-3 5 -10 0
-8 -12 -16 0
-3 4 14 0
1 -5 -7 0
-3 -4 6 0
7 -8 -11 0
9 -10 16 0
3 5 -10 0
-3 4 -6 0
4 10 13 0
1 -7 15 0
2 3 15 0
3 5 13 0
11 -13 -15 0
-5 -8 -14 0
-8 13 -16 0
12 -14 -16 0
-2 7 -10 0
-12 -13 14 0
8 -9 15 0
-4 -11 -15 0
3 8 16 0
-3 -4 16 0
1 12 -13 0
-4 -11 14 0
2 11 13 0
-5 7 -16 0
5 7 13 0
4 14 -16 0
3 14 16 0
-4 -11 -12 0
1 10 -11 0
-2 -9 13 0
-3 -8 -12 0
-3 6 -12 0
5 7 9 0
5 7 8 0
-9 -11 12 0
-6 -8 16 0
-3 10 -16 0
1 -9 -14 0
5 -15 -16 0
1 -8 -14 0
-7 -10 13 0
1 3 13 0
12 13 -15 0
2 7 -9 0
9 -11 12 0
1 -5 -11 0
1 -2 4 0
1 8 9 0
-10 12 14 0
-1 9 16 0
-8 -10 12 0
2 -4 -16 0
3 -9 -16 0
-5 7 -14 0
-5 8 12 0
1 -2 9 0
-2 7 -11 0
-1 -2 8 0
-6 -8 -13 0
1 -4 -13 0
4 -6 10 0
-1 3 -12 0
8 -10 -15 0
-1 8 9 0
6 -8 16 0
-3 6 16 0
-2 3 -9 0
-6 -7 -12 0
-7 -12 14 0
7 8 9 0
2 -5 -8 0
-4 11 14 0
-2 4 8 0
5 -7 11 0
-3 13 16 0
-5 -9 14 0
1 11 -13 0
1 9 15 0
-4 -7 8 0
-1 -9 13 0
4 -7 -9 0
-3 -5 14 0
-12 -14 15 0
-1 -2 -9 0
1 -11 12 0
2 3 -15 0
-1 -3 12 0
-7 -10 -15 0
9 10 -12 0
-5 -9 10 0
9 -10 -11 0
-3 8 9 0
1 6 9 0
-9 -10 15 0
7 11 -12 0
5 -9 -10 0
-4 -7 -16 0
9 11 -14 0
-1 5 -11 0
5 9 -16 0
2 7 13 0
5 6 -13 0
-2 -4 8 0
3 6 13 0
7 8 -15 0
-1 -5 -14 0
3 -10 -13 0
5 -10 -14 0
-7 -10 16 0
4 -12 -15 0
2 3 -6 0
-10 -14 -15 0
2 8 -15 0
-2 3 8 0
